DIMENSION: 6
EDGE_WEIGHT_TYPE: EXPLICIT
EDGE_WEIGHT_FORMAT: FULL_MATRIX
EDGE_WEIGHT_SECTION:
32767 47 32767 50 32767 32767 
47 32767 38 40 43 32767 
32767 38 32767 86 33 32767 
50 40 86 32767 51 32767 
32767 43 33 51 32767 87 
32767 32767 32767 32767 87 32767 
EOF